p cnf 18 37
a 2 15 0
e 1 3 4 5 6 7 8 9 10 11 12 13 14 16 17 18 0
3 1 0
3 -2 0
-1 2 -3 0
-6 -4 0
-6 -5 0
4 5 6 0
-7 3 0
-7 -6 0
-3 6 7 0
8 -9 -10 0
-8 9 -10 0
8 9 10 0
-8 -9 10 0
-11 -12 -13 0
11 12 -13 0
-11 12 13 0
11 -12 13 0
-14 13 0
-14 11 0
-13 -11 14 0
15 8 0
15 11 0
-8 -11 -15 0
16 -14 0
16 -15 0
14 15 -16 0
-17 10 0
-17 -16 0
-10 16 17 0
-7 -17 -18 0
7 17 -18 0
-7 17 18 0
7 -17 18 0
-17 -10 -13 8 2 -15 -16 0
17 9 5 2 -1 0
-7 -5 4 -13 -18 0
18 0
